%SETS
JOBS = 1..25;
MACHINES = 1..5;
SPEED    = 5;

time = array3d(JOBS,MACHINES,1..SPEED,[23, 8, 5, 4, 4, 19, 6, 4, 3, 3, 14, 4, 3, 2, 2, 10, 3, 2, 2, 1, 25, 8, 6, 5, 4, 14, 5, 3, 3, 2, 34, 11, 8, 7, 6, 18, 6, 4, 3, 3, 22, 7, 5, 4, 4, 26, 9, 6, 5, 4, 119, 41, 29, 24, 21, 44, 15, 10, 9, 7, 13, 4, 3, 2, 2, 54, 18, 13, 10, 9, 44, 15, 11, 9, 8, 1, 1, 1, 1, 1, 32, 11, 8, 6, 5, 41, 14, 10, 8, 7, 34, 11, 8, 7, 6, 31, 11, 7, 6, 5, 20, 6, 4, 4, 3, 3, 1, 1, 1, 1, 81, 28, 20, 16, 14, 13, 4, 3, 2, 2, 6, 2, 1, 1, 1, 32, 11, 8, 6, 5, 133, 46, 32, 27, 23, 7, 2, 1, 1, 1, 28, 9, 7, 5, 5, 23, 8, 5, 4, 4, 32, 11, 8, 6, 5, 71, 24, 17, 14, 12, 11, 3, 2, 2, 2, 7, 2, 1, 1, 1, 13, 4, 3, 2, 2, 35, 12, 8, 7, 6, 33, 11, 8, 6, 5, 13, 4, 3, 2, 2, 117, 40, 28, 23, 21, 15, 5, 3, 3, 2, 12, 4, 2, 2, 2, 32, 11, 7, 6, 5, 2, 1, 1, 1, 1, 13, 4, 3, 2, 2, 38, 13, 9, 7, 6, 37, 12, 9, 7, 6, 8, 2, 2, 1, 1, 5, 1, 1, 1, 1, 16, 5, 4, 3, 2, 10, 3, 2, 2, 1, 34, 11, 8, 6, 6, 5, 1, 1, 1, 1, 10, 3, 2, 2, 1, 48, 16, 11, 9, 8, 24, 8, 6, 5, 4, 56, 19, 13, 11, 10, 97, 33, 23, 19, 17, 46, 16, 11, 9, 8, 5, 1, 1, 1, 1, 24, 8, 6, 5, 4, 16, 5, 4, 3, 3, 13, 4, 3, 2, 2, 35, 12, 8, 7, 6, 45, 15, 11, 9, 8, 29, 10, 7, 6, 5, 3, 1, 1, 1, 1, 31, 10, 7, 6, 5, 1, 1, 1, 1, 1, 5, 1, 1, 1, 1, 66, 23, 16, 13, 12, 13, 4, 3, 2, 2, 4, 1, 1, 1, 1, 29, 10, 7, 6, 5, 4, 1, 1, 1, 1, 27, 9, 6, 5, 4, 7, 2, 1, 1, 1, 1, 1, 1, 1, 1, 82, 28, 20, 16, 14, 1, 1, 1, 1, 1, 18, 6, 4, 3, 3, 10, 3, 2, 2, 1, 27, 9, 6, 5, 5, 48, 16, 11, 9, 8, 23, 8, 5, 4, 4, 22, 7, 5, 4, 4, 3, 1, 1, 1, 1, 32, 11, 7, 6, 5, 5, 2, 1, 1, 1, 17, 6, 4, 3, 3, 1, 1, 1, 1, 1, 9, 3, 2, 1, 1, 51, 17, 12, 10, 9, 21, 7, 5, 4, 3, 20, 7, 5, 4, 3, 11, 4, 2, 2, 2, 45, 15, 11, 9, 8, 8, 2, 2, 1, 1, 3, 1, 1, 1, 1, 21, 7, 5, 4, 3, 8, 2, 1, 1, 1, 38, 13, 9, 7, 6, 5, 1, 1, 1, 1, 39, 13, 9, 8, 7, 24, 8, 5, 4, 4, 1, 1, 1, 1, 1, 21, 7, 5, 4, 3, 28, 9, 6, 5, 5, 72, 24, 17, 14, 12, 39, 13, 9, 8, 7, 35, 12, 8, 7, 6, 17, 6, 4, 3, 3, 1, 1, 1, 1, 1, 43, 15, 10, 8, 7, 1, 1, 1, 1, 1, 20, 7, 5, 4, 3, 21, 7, 5, 4, 3, 3, 1, 1, 1, 1, 1, 1, 1, 1, 1, 22, 7, 5, 4, 3, 17, 5, 4, 3, 3, 9, 3, 2, 1, 1, 1, 1, 1, 1, 1, 26, 8, 6, 5, 4, 3, 1, 1, 1, 1, 1, 1, 1, 1, 1]);
energy = array3d(JOBS,MACHINES,1..SPEED,[79, 92, 95, 96, 96, 82, 94, 96, 97, 97, 86, 96, 97, 98, 98, 90, 97, 98, 98, 99, 77, 92, 94, 95, 96, 86, 95, 97, 97, 98, 71, 89, 92, 93, 94, 83, 94, 96, 97, 97, 80, 93, 95, 96, 96, 77, 91, 94, 95, 96, 30, 66, 74, 78, 81, 64, 86, 90, 91, 93, 87, 96, 97, 98, 98, 58, 83, 87, 90, 91, 64, 86, 89, 91, 92, 99, 99, 99, 99, 99, 72, 89, 92, 94, 95, 66, 86, 90, 92, 93, 71, 89, 92, 93, 94, 73, 89, 93, 94, 95, 81, 94, 96, 96, 97, 97, 99, 99, 99, 99, 44, 75, 81, 85, 86, 87, 96, 97, 98, 98, 94, 98, 99, 99, 99, 72, 89, 92, 94, 95, 26, 63, 72, 76, 79, 93, 98, 99, 99, 99, 75, 91, 93, 95, 95, 79, 92, 95, 96, 96, 72, 89, 92, 94, 95, 49, 78, 84, 86, 88, 89, 97, 98, 98, 98, 93, 98, 99, 99, 99, 87, 96, 97, 98, 98, 70, 88, 92, 93, 94, 71, 89, 92, 94, 95, 87, 96, 97, 98, 98, 31, 67, 75, 79, 81, 86, 95, 97, 97, 98, 88, 96, 98, 98, 98, 72, 89, 93, 94, 95, 98, 99, 99, 99, 99, 87, 96, 97, 98, 98, 68, 87, 91, 93, 94, 69, 88, 91, 93, 94, 92, 98, 98, 99, 99, 95, 99, 99, 99, 99, 85, 95, 96, 97, 98, 90, 97, 98, 98, 99, 71, 89, 92, 94, 94, 95, 99, 99, 99, 99, 90, 97, 98, 98, 99, 61, 85, 89, 91, 92, 78, 92, 94, 95, 96, 57, 82, 87, 89, 90, 37, 71, 79, 82, 84, 63, 85, 89, 91, 92, 95, 99, 99, 99, 99, 78, 92, 94, 95, 96, 85, 95, 96, 97, 97, 87, 96, 97, 98, 98, 70, 88, 92, 93, 94, 63, 86, 89, 91, 92, 74, 90, 93, 94, 95, 97, 99, 99, 99, 99, 73, 90, 93, 94, 95, 99, 99, 99, 99, 99, 95, 99, 99, 99, 99, 51, 79, 85, 87, 88, 87, 96, 97, 98, 98, 96, 99, 99, 99, 99, 74, 90, 93, 94, 95, 96, 99, 99, 99, 99, 76, 91, 94, 95, 96, 93, 98, 99, 99, 99, 99, 99, 99, 99, 99, 44, 75, 81, 85, 86, 99, 99, 99, 99, 99, 83, 94, 96, 97, 97, 90, 97, 98, 98, 99, 76, 91, 94, 95, 95, 61, 85, 89, 91, 92, 79, 92, 95, 96, 96, 80, 93, 95, 96, 96, 97, 99, 99, 99, 99, 72, 89, 93, 94, 95, 95, 98, 99, 99, 99, 84, 94, 96, 97, 97, 99, 99, 99, 99, 99, 91, 97, 98, 99, 99, 60, 84, 88, 90, 91, 81, 93, 95, 96, 97, 81, 93, 95, 96, 97, 89, 96, 98, 98, 98, 63, 86, 89, 91, 92, 92, 98, 98, 99, 99, 97, 99, 99, 99, 99, 81, 93, 95, 96, 97, 92, 98, 99, 99, 99, 68, 87, 91, 93, 94, 95, 99, 99, 99, 99, 67, 87, 91, 92, 93, 78, 92, 95, 96, 96, 99, 99, 99, 99, 99, 81, 93, 95, 96, 97, 75, 91, 94, 95, 95, 48, 78, 84, 86, 88, 67, 87, 91, 92, 93, 70, 88, 92, 93, 94, 84, 94, 96, 97, 97, 99, 99, 99, 99, 99, 65, 86, 90, 92, 93, 99, 99, 99, 99, 99, 81, 93, 95, 96, 97, 81, 93, 95, 96, 97, 97, 99, 99, 99, 99, 99, 99, 99, 99, 99, 80, 93, 95, 96, 97, 84, 95, 96, 97, 97, 91, 97, 98, 99, 99, 99, 99, 99, 99, 99, 77, 92, 94, 95, 96, 97, 99, 99, 99, 99, 99, 99, 99, 99, 99]);
precedence = array2d(JOBS,MACHINES,[4, 3, 1, 2, 0, 1, 2, 0, 4, 3, 1, 4, 0, 2, 3, 3, 0, 2, 4, 1, 4, 3, 1, 2, 0, 4, 3, 2, 0, 1, 0, 1, 4, 3, 2, 4, 3, 2, 1, 0, 0, 2, 3, 4, 1, 3, 4, 2, 1, 0, 0, 1, 2, 4, 3, 2, 3, 1, 4, 0, 1, 4, 3, 0, 2, 0, 4, 2, 3, 1, 0, 3, 4, 2, 1, 1, 2, 0, 4, 3, 4, 3, 2, 0, 1, 4, 1, 2, 0, 3, 4, 3, 2, 0, 1, 3, 0, 1, 4, 2, 2, 3, 4, 1, 0, 2, 0, 1, 4, 3, 0, 2, 4, 3, 1, 2, 0, 1, 4, 3, 4, 3, 0, 2, 1]);